         500

C    -3.1837353020E+02    -4.1542195045E+01     5.3351508108E+02
C     1.6331944461E+03     3.3241394869E+02     3.4556084304E+02
C    -9.6360822304E+02     6.8843513114E+02     1.2899803134E+03
C    -1.1074293895E+03     1.3701798528E+00     1.2237966130E+02
C    -1.9383625174E+02    -1.4696290534E+03    -1.1894952659E+02
C    -1.0609862529E+03    -1.8204175482E+00    -1.1607734341E+03
C     5.4302640915E+01    -1.0649278662E+03     9.5968545872E+02
C     5.7551477651E+01    -4.7706927209E+02     2.4014683251E+02
C    -7.3984414084E+02     8.7684311361E+02     8.6069495454E+02
C    -7.4320886339E+02     3.9969243170E+02     1.1214047812E+03
C    -3.6814923490E+02    -6.3601703149E+02    -2.5492333203E+02
C     4.3415972176E+02     1.6278749199E+02     1.5928032905E+03
C     1.0962777923E+02     4.0270058914E+01    -1.5245084058E+03
C    -8.6765848854E+02    -6.5317775574E+02    -3.5001932891E+02
C     6.0332476312E+02     1.0429790263E+03    -1.3356951536E+03
C    -1.1107224313E+03    -4.9750930211E+02    -7.6924624415E+02
C     1.7000661174E+02    -4.4033674608E+02    -1.6660578186E+03
C    -1.5165329707E+02    -1.3877048754E+03     8.7145308443E+02
C     4.9378865624E+02    -7.2095989815E+02    -4.9239463842E+01
C    -1.5985999870E+03     7.9326335193E+02     4.1656439760E+02
C    -3.4665089686E+02     4.2134604027E+02     4.5669332407E+01
C    -4.2102307445E+02     2.7943820595E+02    -1.3648378807E+03
C    -1.4174881489E+03     9.9212918930E+02    -2.9379967987E+02
C     4.2260988835E+02    -3.3386917924E+02     1.7228840616E+03
C     9.6938877226E+02     3.2905383874E+01     1.3834894101E+02
C    -1.5589214029E+03     1.5121895323E+02     7.5534423120E+02
C     1.3773178263E+03    -7.0868070792E+02     2.7368036503E+01
C    -6.9265485141E+02    -8.9293731623E+02     1.1094746780E+03
C     3.2632360582E+02     2.6478618292E+02     1.5392971137E+03
C    -4.3520092708E+02    -1.1318996153E+02    -1.7629310286E+03
C     1.3061663606E+03    -2.4869686398E+02     6.2072452553E+02
C     1.0316812280E+03    -6.1840913707E+02     1.2779496345E+03
C     5.1674939348E+02    -9.5393752859E+02    -8.6537893080E+02
C     2.6531833732E+02     1.5225984769E+03    -2.2881746048E+02
C     1.4260663754E+03    -9.6998759765E+02    -6.0901657059E+01
C    -4.0826003312E+02     2.3430906436E+02     1.2378766010E+03
C    -2.9765955903E+01    -1.1330694662E+03     1.3833076554E+03
C     5.6081941330E+02    -1.1962241497E+02    -4.2560609132E+02
C     4.3818915562E+02    -9.7548053422E+01    -1.1280248101E+03
C     5.7012340011E+02     2.7158466740E+02    -1.3463955259E+03
C    -6.2644038899E+02     1.6920828353E+03    -3.5423557173E+02
C    -5.4221036685E+02     2.3821623685E+02     1.2967138858E+02
C     4.1952302920E+02    -1.7457765396E+02     5.0764470805E+02
C     9.5492891919E+02    -6.6713548767E+02    -4.1099480829E+01
C    -5.7560786995E+01    -8.3265351671E+02     1.6558011512E+02
C    -1.0366371416E+03     5.3178234618E+02     4.1982464347E+02
C     8.6356084759E+02    -6.5116289489E+01    -2.6681145138E+01
C    -7.5613313282E+02    -7.4988977767E+02     1.1498165495E+02
C     5.3263578347E+02    -1.2563363259E+03     1.1377120475E+03
C     1.3938949336E+03    -8.7658340592E+02    -7.4759761227E+01
C    -1.1558389365E+03     7.1354807062E+02    -8.5855769946E+02
C     3.2345012469E+02    -7.5374330965E+01     1.6107397673E+03
C    -4.4121804069E+01     1.4230902091E+02    -7.7471179757E+02
C    -5.2205852852E+02     2.4276643180E+02     2.3807780232E+02
C    -7.2987979119E+02    -4.7662402667E+02    -3.1588453032E+02
C     1.7161128359E+03     5.8137991519E+01    -5.8067628762E+02
C    -1.3303086316E+02    -5.9657005958E+02     4.8474951580E+01
C    -9.6141555241E+01    -4.5986968026E+02     1.5897902999E+03
C    -3.7008321859E+02     4.9664999326E+02     1.2689190572E+03
C    -5.5321996280E+02     9.8651545728E+01     6.8687846721E+02
C     5.8149961701E+02    -1.0792591222E+03    -5.1801783168E+02
C     6.3462112276E+02    -4.9017690140E+02     7.1385033980E+02
C    -1.1887127314E+03    -1.0501266752E+03     1.5688741630E+02
C     1.4781798641E+02     1.2470231782E+03     1.5233979026E+02
C     6.5928605607E+02     3.4573620805E+02     8.7476514655E+02
C     1.3879236798E+03     5.8336687773E+02     8.1914222250E+02
C     5.1294084682E+02     5.5645431334E+02    -1.3332397856E+03
C    -1.1181327373E+03    -4.0832993065E+02    -1.0364676827E+03
C    -1.5585950130E+03    -3.0691280898E+02    -3.9748563983E+02
C    -8.4161076612E+01    -6.4852825010E+02     1.2957414517E+03
C    -7.5489509544E+02     5.7336987428E+02     1.5861124024E+03
C    -1.4597523372E+03     7.9257230662E+02     1.7036066948E+01
C    -9.8425165071E+02     8.5633567644E+02     7.5061958582E+02
C     9.6904878911E+02     8.0580398403E+02    -5.2951560579E+02
C     1.2220913644E+03     4.6630111535E+02     5.0518239529E+02
C    -1.0245360770E+02    -4.0792106964E+02    -5.3965180450E+02
C    -1.1736818910E+03     8.4341253614E+02     9.4522138424E+02
C    -1.6844438890E+02     8.5216301776E+02    -1.5714398458E+02
C    -3.8740456731E+02    -9.1252848943E+02    -1.1544477284E+03
C    -2.8108702153E+02     2.0701536537E+02     5.7478279190E+02
C     3.5301433338E+02     1.3172895319E+03     4.3680741990E+02
C    -1.1697488029E+03    -1.3073913545E+03    -1.1356646811E+02
C     8.1250209475E+02     9.2994058976E+02     6.8588961967E+01
C    -2.0201110809E+02     7.4960721896E+02    -1.1995367678E+03
C    -7.3197042040E+02     1.0186378305E+03     9.8033463188E+02
C     2.4589301621E+02    -6.6874828913E+02     1.3810386212E+03
C     1.5178890838E+03     8.8474915205E+00    -4.5346799145E+02
C     2.1875603613E+01    -1.2315915297E+03     2.7438590485E+01
C    -4.9049072126E+02    -5.6866654971E+02    -1.0791792879E+03
C     5.8373411011E+02     6.1909206982E+02    -8.6507204993E+02
C     1.4591401843E+03     4.8929760569E+02     5.5861920556E+02
C    -9.1670955359E+02     1.3926177335E+03     2.7604970032E+02
C    -3.6168219090E+02     2.2544559499E+01    -8.7711709717E+02
C    -2.5892299493E+01     8.4064892986E+02     8.1920202981E+01
C     1.3299517449E+03    -7.6440670433E+02     2.3455454010E+01
C    -3.4387104501E+02    -3.8242148252E+02    -7.4040850562E+02
C     1.5296503143E+03     5.7154410796E+02    -3.6636317857E+02
C    -4.2149376774E+02    -8.2100147324E+02     1.1896788544E+03
C     5.9890314094E+02     5.5583252977E+02    -3.8844387627E+02
C    -1.3309959211E+03     1.7549862551E+01    -1.4136297968E+02
C    -7.9887184813E+02     2.5965071402E+02    -6.7594046389E+02
C     9.0194619343E+02     5.1671880678E+01    -1.4234931513E+03
C     4.5772647169E+02     6.1777014264E+02     1.6333286286E+03
C    -4.2193859234E+02    -6.6997862256E+00    -9.0583490708E+01
C     5.9410033023E+02     7.1539901221E+01     1.5648156604E+03
C     1.2322147321E+03     2.3143239265E+02    -6.9721798597E+02
C     2.8275885514E+02     2.6813557027E+02     1.4612776908E+03
C    -4.6323205960E+02    -1.3862836987E+03     4.3561686000E+01
C    -7.1870830791E+02     5.8095146577E+02    -1.4495999973E+03
C     2.2452904812E+02    -8.2768640198E+02    -5.0046974538E+02
C    -8.9783563578E+01     1.6088772139E+03     4.4087979024E+02
C    -8.8983819800E+02    -6.5339516945E+02     8.6914110954E+02
C    -5.7212527757E+02     9.5134048521E+02     1.3416257131E+03
C    -9.5194777522E+02    -4.1919581341E+02    -4.7595112356E+02
C     7.0069296898E+02    -2.0759103187E+02     8.8033275820E+02
C     1.3799709866E+03     7.5020102190E+02    -9.0442681236E+02
C     9.6979638593E+02     6.8095104304E+02    -1.0990115812E+03
C     2.8579600600E+02    -1.0110946123E+03    -1.0709119082E+02
C    -1.2177077574E+03     1.2780112354E+02     6.7480137385E+02
C     1.2431846791E+03    -7.9644396424E+02    -6.3091591003E+02
C     5.0386095068E+02    -2.1278931431E+02     6.8781436401E+02
C    -8.5649502521E+02     1.4331113559E+02    -1.3008721384E+03
C     1.0472017272E+03    -2.9037036762E+02    -4.4636606336E+01
C     7.5715132630E+02    -5.9186296011E+02     2.6452072185E+02
C     2.8533960452E+02     4.4309332392E+02     1.2604466344E+03
C     5.1466499146E+02     6.5660215436E+02    -1.0769784890E+03
C     1.7729346578E+03    -3.6413750318E+02    -9.4213379412E+01
C     4.8525124841E+02    -1.9382360394E+02     1.7322340509E+03
C     7.6775768897E+02     5.6113957730E+02     1.3940703044E+03
C     8.8891565555E+02     6.8223918688E+02    -4.7212955962E+02
C    -3.4394522458E+02    -1.1313251852E+03     6.9009397367E+02
C     7.0287465733E+02     2.7058489286E+02    -2.8926882436E+02
C     5.2799284705E+01    -1.2824538573E+03     8.8275092691E+02
C    -1.6673434660E+03     8.6527139463E+01    -1.4830539117E+01
C    -5.9305849909E+02    -9.1549990593E+02     9.2970640116E+02
C     5.7852570884E+02     1.5525288681E+03    -3.1386709334E+02
C    -6.0192571971E+02    -1.0186938337E+03     4.5409042872E+02
C    -9.1585675477E+02    -2.2555766418E+02    -9.6172262680E+02
C    -4.9089035514E+02    -1.5075638850E+03    -7.2063674077E+02
C    -5.8357640171E+02     6.9730094306E+02     7.9225681219E+01
C     6.4681696774E+02     6.4508911518E+02    -9.8739026925E+02
C     1.2308877948E+03     1.1452653998E+02     8.8408394456E+02
C     1.1929636465E+03     5.7165554288E+02     3.3701638095E+02
C    -8.9749611622E+02    -9.6902678852E+02    -6.7514541651E+02
C     7.2162937135E+02    -1.7220155046E+02     8.3705947076E+02
C    -8.3145598572E+02     1.1624499395E+03    -4.5184164375E+02
C    -7.2047945904E+02     1.4111893844E+03    -7.4267388282E+02
C    -1.0887584650E+03     6.3604510904E+02     1.0225796806E+03
C    -3.0003350773E+02     8.1325336393E+02    -8.0289829892E+01
C     1.8794575521E+02     9.8767823580E+02     7.2358279578E+02
C     5.9573227402E+02     8.3886966890E+02    -1.0706323441E+03
C    -3.0588620211E+01     1.0457568720E+02    -5.0461465200E+02
C    -5.0482846091E+01     4.0919556900E+02     4.5272865908E+02
C     3.7404580563E+02    -1.6998311967E+03     5.9747279849E+02
C    -6.2892169473E+01    -5.4080083611E+02    -1.3688458444E+03
C     7.3020345238E+02    -5.8585389969E+02     1.1788515038E+03
C    -5.8484328921E+02    -3.2163114638E+02     1.4922520474E+03
C    -3.5433271124E+02     1.8117894621E+02     1.1043421555E+03
C    -7.0978770595E+01     1.4527503188E+03    -4.2137509504E+02
C     4.3316241226E+02    -6.1885611506E+02    -1.2508032649E+03
C     7.7565859217E+02     4.2125789498E+02    -6.6516376676E+02
C     8.3294125043E+01    -9.1814752839E+02    -8.0137507350E+02
C    -6.0084371557E+02     7.0408870368E+02    -3.2198418254E+02
C     1.1969162430E+02     4.3936874705E+02    -1.1078349715E+03
C    -3.0874830909E+02    -1.5409398441E+03    -4.2138721868E+02
C     2.0813090203E+02     1.5179345030E+03     3.5959482134E+02
C    -8.9776754109E+01    -8.5047794244E+02     5.7128279752E+01
C     4.2199354121E+01     1.4144610445E+03     1.1478623344E+02
C     8.6871570782E+02    -3.2543376178E+02    -9.7781956752E+02
C     1.2114481261E+03     9.3123099039E+02     4.4261226767E+02
C     3.1411462291E+02    -8.1671332830E+02     1.5241716883E+03
C     4.8829090584E+02     1.2142203866E+03     4.6138118707E+02
C    -1.8855662661E+02    -2.1380037155E+02     1.0272963747E+03
C    -8.2205753352E+01    -1.2504680299E+03     1.7739580493E+02
C     1.3906731890E+03     2.8977046897E+02    -4.8381630405E+02
C     1.3257425468E+03    -9.8023656993E+02    -2.4967080582E+01
C     1.6541689205E+03    -4.9791242044E+01     2.0854799888E+02
C    -8.9417525966E+02    -4.3446929006E+02     6.0063123568E+02
C     8.3849918803E+02    -1.0733919437E+03    -7.6442041873E+02
C     6.7844103136E+02    -1.2144039454E+03    -3.2664686710E+02
C    -5.4701720053E+02     5.3556263713E+02    -1.5948561684E+03
C    -5.3544463440E+02    -5.0570631074E+02    -1.1180860113E+03
C    -5.8069554103E+02    -9.2449106093E+02    -2.5747187492E+02
C    -1.3072778577E+03    -5.3163186495E+01    -4.2451276678E+02
C     2.2731747706E+02     1.1310877553E+03    -1.4046309040E+03
C    -3.8197182920E+02     1.1501701132E+03    -1.0298264656E+03
C    -5.9144141461E+02    -1.6892199847E+03    -3.3441246076E+02
C     9.2796804985E+02     6.0164197375E+02    -1.1296214919E+03
C    -1.5188670868E+03     3.7785002620E+02     2.2522439088E+02
C     1.2408528731E+03    -5.8517230261E+01     1.2692163509E+03
C    -1.2764253050E+03    -4.4851059446E+02    -6.4416832961E+02
C     1.3940323748E+02    -9.6819479047E+02     1.3370616595E+03
C     1.4151759134E+03    -5.8630488970E+02    -4.6560136751E+01
C     1.3926396294E+03    -3.9165709199E+02     7.9437498912E+02
C     1.3103143469E+03     4.8214976720E+02     4.2744307196E+02
C     1.1246892974E+02     6.0147179479E+02    -8.5813780949E+02
C    -1.1249622983E+03     1.3592635544E+00    -9.2623191185E+02
C     1.2326502484E+03    -6.5942633584E+02     8.0721055513E+02
C    -3.1269298650E+02    -7.7320907666E+02     2.1779747572E+02
C    -4.0879388391E+02    -5.6001541155E+02    -5.3203027367E+02
C     1.1824965234E+03     9.2655852883E+02    -8.8688894096E+02
C     4.2418196283E+02     5.5592705591E+02     1.2939059155E+03
C    -1.5006960916E+02     1.0611799569E+03     1.0783508890E+03
C     3.9226351267E+02     4.2695524280E+02    -8.6063175162E+02
C     1.5572705773E+03     6.6098555705E+02    -6.6694136918E+02
C    -6.0507697358E+02     2.5877228222E+02    -1.7221847599E+03
C    -9.1439818257E+02     1.0111664354E+03    -6.4218468140E+02
C    -9.6933527878E+02    -1.0379810427E+03    -1.1342872335E+03
C    -4.4265360345E+02    -1.0746179376E+03    -2.7356798305E+02
C    -5.1097542126E+02     1.3201589414E+03    -7.1602601396E+02
C     7.4177654836E+02     1.6048616129E+03     5.3854147533E+02
C    -3.5728274592E+02    -9.9633542248E+02     9.8791826860E+02
C     1.8184025520E+02     6.4737776566E+02    -4.3349449871E+02
C     9.8213987617E+01     9.8731065440E+02     1.9121604600E+02
C    -1.0669999451E+03    -1.1678900687E+03     9.3574941722E+01
C    -2.4708614968E+02     1.3478736210E+03    -4.9543271880E+02
C     1.9469714777E+02    -3.9604064155E+02    -9.8028215711E+02
C     2.1423009430E+02     5.9219124648E+02    -1.1635835254E+03
C     8.8233303878E+02     1.5394741130E+03     3.1135719016E+02
C     2.9926740081E+02     1.3148096560E+03     1.0539914428E+03
C     2.2136701595E+02    -4.7770871293E+02     1.5528002363E+02
C    -1.0358020654E+03     1.3674243422E+01    -7.8870966262E+02
C    -4.0495185881E+02    -1.3738152562E+03     1.0420331640E+03
C    -6.5569816436E+02     6.8921118227E+02     5.3575168101E+02
C     2.4285666906E+02     5.1280409991E+02     2.8819274834E+01
C     9.9332654577E+02    -1.0731270611E+02    -1.4568086221E+03
C     8.9667746655E+02    -1.1902900742E+03     7.7972879116E+02
C     1.0080817325E+03     3.4451970776E+02     9.0457563438E+02
C     5.2930307430E+02    -1.1558701551E+03    -9.9176085404E+02
C    -8.3380751251E+02    -1.6453912758E+03     9.5607025901E+01
C     3.1670038306E+01    -6.2398706935E+02     1.3358408867E+03
C     6.9358751750E+02     6.8358856195E+02    -1.1340663885E+03
C     4.7296991714E+02    -8.2848312859E+02     1.4143583487E+03
C    -6.4065614307E+02     1.2421086165E+03    -1.0941890648E+03
C     6.9327637070E+02     9.8480005685E+02     3.2307011649E+02
C     3.7249127373E+01    -6.1309451251E+02     1.0395956377E+03
C     9.5586764585E+02     3.4516651755E+02     1.0140108904E+03
C     4.6115320613E+02    -5.2457236378E+02     5.7654650935E+02
C     3.0733944240E+02    -1.0820280972E+03    -1.1019096476E+03
C     1.3999748031E+03     4.8840436291E+02     9.9212374629E+02
C     1.0486223823E+02    -6.2264707085E+02    -1.3494136495E+03
C    -1.3693847422E+03    -8.5852202508E+02     8.9293916518E+02
C    -1.1586711515E+03     5.8986874828E+02    -2.4980485652E+02
C     7.4673024197E+02     3.2037519570E+02    -2.8557487347E+02
C    -5.0640243745E+02     8.1353445000E+02     7.6553070475E+02
C     2.4242172700E+02     9.8983389153E+02     1.5001887028E+03
C    -2.2717519672E+02    -4.6708870901E+02    -7.9247823474E+02
C     6.8578548265E+02    -1.1943383648E+03    -1.0590338017E+03
C    -6.5283423636E+02     1.6443150637E+03    -3.3893461408E+02
C    -1.3206245295E+03     8.7653033024E+02     6.2072543716E+02
C     6.8455193786E+02     4.6812290116E+02    -5.4019007041E+02
C    -1.4400066625E+03    -7.7573626326E+02     4.7303068413E+02
C    -4.6554415351E+02     1.4818628727E+03     7.1135598453E+02
C     1.0894643474E+02    -1.2004527057E+03     8.5340249285E+02
C    -3.1363702696E+02    -1.1960991236E+03    -8.6870684224E+02
C     1.1202299252E+02     6.3719452685E+02    -1.0767724972E+03
C    -2.4947996617E+02    -1.2142371347E+03     1.7734653854E+02
C     8.3829047842E+02     3.9031779177E+02     1.5529794436E+03
C    -1.1003532865E+03    -1.2521964121E+03    -6.7318455674E+02
C    -8.7432464641E+01     5.7298129426E+02    -4.4836861496E+02
C     5.4223670138E+02    -1.3431822781E+03     9.1711015921E+02
C     6.2572293619E+02     9.1745024649E+02     1.3159000254E+03
C    -9.4117468298E+01    -1.1301246663E+03     6.9661102940E+02
C    -1.1820473067E+03    -7.6317413869E+02    -1.5585233918E+02
C     4.8070105313E+02    -1.2176259429E+02     1.4732437034E+03
C    -2.6105755622E+02    -2.5495383256E+02    -5.4199738123E+02
C    -3.4315553666E+02     3.1208142283E+01     9.0268798314E+02
C    -4.8817781066E+01    -1.1791144658E+02    -1.4297289418E+03
C     3.1494376005E+02     5.4562774240E+02    -7.5077454210E+02
C    -1.0211279697E+03    -7.6542800140E+02     1.2560690195E+03
C    -8.5894845235E+02    -1.0697882058E+03    -1.0472636232E+03
C     5.4835140832E+02    -1.5098827782E+03    -2.0917195803E+02
C     1.3046362904E+03    -5.8791101409E+01     3.1004272369E+02
C     1.4342479303E+02     4.0650594214E+02    -1.4017597541E+02
C    -8.4756524724E+02    -1.1301783341E+02    -5.8689344081E+02
C    -1.1949993211E+03     1.2606119361E+03    -4.9872439896E+02
C    -6.3135175766E+02    -4.5420634354E+02     7.4762383279E+02
C     5.5767836363E+02    -7.7008023749E+01    -4.5157582501E+00
C     8.7723757079E+02     6.1872866225E+02    -1.8299991219E+02
C    -1.1808257839E+03    -7.2418367918E+02     3.5228658758E+02
C    -6.3628011009E+02     5.9621650727E+02     1.1235832151E+03
C     7.3426613859E+02    -1.5861849046E+03    -2.8651637429E+02
C    -1.7959109387E+02    -1.7454439753E+03    -5.1754143033E+02
C    -1.4112366594E+03     5.0040305707E+02    -3.3243751134E+02
C    -3.8832900646E+02    -3.1126615181E+02     2.0582502683E+02
C    -4.4696337503E+02     1.0309259197E+03    -1.2633572950E+03
C     1.2601554290E+03    -6.3420788586E+02    -4.6964854627E+02
C    -2.4990945949E+02    -1.4918791132E+03     9.8422712393E+01
C    -2.3745155889E+02    -2.0781864221E+02    -1.0888235263E+03
C     1.5627848436E+01    -6.1279662086E+02     1.0526066414E+03
C     6.6498985151E+02     1.2385010840E+03    -1.1506512530E+03
C     1.3691906789E+02    -1.5488576276E+02     1.4180195982E+03
C     1.0158560085E+03    -3.0506174304E+02     9.6145525660E+02
C     7.5842953202E+02    -9.7591608525E+02     1.4928110857E+01
C     3.3035717210E+01    -1.2964270261E+03    -1.4713588186E+02
C    -7.1008181818E+02     3.2850992999E+02     1.4199942056E+03
C     8.0523702856E+02    -8.1837984580E+02    -8.2242611270E+02
C     9.9464452643E+02    -1.0254667742E+03     1.1492843642E+03
C    -3.5974217295E+02     1.4850329873E+03     9.0865660341E+02
C    -1.1602417590E+03    -9.6623645066E+02    -9.1387080342E+02
C    -6.8334524604E+02    -1.4325527138E+03    -1.3166636055E+01
C     1.5139136998E+03    -5.6521502859E+02    -6.2189154470E+02
C    -2.6668148051E+01    -7.9770500789E+02     1.2173011686E+03
C     5.1489518643E+02    -3.3154954239E+02     1.6192592057E+03
C    -1.1997440790E+02     7.8479266959E+02     9.1644799986E+02
C     3.9394453950E+02     9.1992418908E+02    -5.7749770729E+01
C     1.3749311352E+03    -2.7817549919E+01    -7.2475987509E+02
C    -4.4062049266E+02     9.3307336022E+02    -8.1276370104E+02
C     2.1968267551E+02     8.0766017091E+02    -1.2816111738E+03
C     1.2403324606E+03     3.7353685366E+02     5.8231778204E+02
C     2.7595235262E+00     4.6358700984E+02     8.8270536781E+02
C    -4.0771961210E+02    -8.3266278123E+02    -6.5335539435E+02
C     5.2726312835E+02    -7.6679690708E+02    -9.6014702124E+02
C    -6.4390695992E+01     2.7129155006E+02     1.7697118238E+02
C     6.7853080465E+02    -2.4951083709E+02     3.9791199769E+02
C    -1.9402508232E+02     1.0082304029E+03     1.1356378571E+02
C    -1.5463570554E+01     1.4175632011E+03     1.9810871519E+02
C    -8.6126732527E+02    -1.2022150935E+03    -7.2793861657E+02
C    -8.7843982954E+01    -8.7902391439E+02    -7.0340479830E+02
C    -8.1293624996E+02     3.0186992298E+02    -9.6391182138E+02
C    -8.4513966522E+02    -9.6899139083E+02    -2.4722214782E+02
C     3.0331361216E+02     9.8288891113E+02     7.3218091925E+02
C     3.3818393497E+02    -1.2598159124E+03     3.8154526192E+02
C    -1.0896511442E+03    -7.0425304869E+02    -7.8447451645E+01
C    -9.2336225019E+02     6.6186487727E+02    -7.2448665652E+02
C     8.3215109428E+02     9.4961243255E+02    -5.5907172864E+02
C    -1.0454951828E+03    -1.2305084625E+03    -5.1908553325E+02
C    -1.2187862649E+03     1.7766690332E+02     6.0923364230E+02
C     1.9783986492E+02     5.9573718467E+02    -7.0352409025E+02
C     5.2176304495E+02    -6.5626235844E+02     1.1340766804E+03
C     8.4893420907E+02     5.4109691393E+02    -1.1099174993E+03
C    -2.2408324438E+01     1.3827376266E+02    -9.4371989968E+01
C    -3.8044570307E+02    -1.3023716124E+02    -1.6744646825E+03
C     1.4030378886E+03    -8.1972917672E+02     4.0191078842E+02
C    -1.7511562486E+03    -3.7409994465E+02    -1.3256489986E+02
C     7.5915805768E+02    -5.4928824401E+02    -5.4023649498E+02
C    -1.3757159280E+03     7.3622068521E+02     1.5224262350E+02
C     9.1098438078E+02    -3.8025472653E+02    -1.2373245813E+03
C    -6.8577837193E+02     1.8031973184E+02     1.8862328090E+02
C    -2.1426498332E+01     1.2997550501E+02     1.1908553705E+03
C     6.0738424431E+02     1.4960577119E+02     5.6789871820E+02
C    -4.6117809242E+02    -1.2366068461E+02    -1.3157362344E+03
C     3.4029763347E+01    -6.4063156013E+02    -2.5793093502E+02
C    -5.9186157957E+02     3.9736021083E+02    -2.1103837613E+02
C    -2.6678478269E+02    -6.6593205397E+02    -1.3791733147E+03
C    -1.5430660075E+03    -9.8642136201E+02     9.4965496174E+01
C     9.0826968547E+02    -1.3667425808E+03     4.3148072331E+02
C     8.5299246510E+01     1.6571127046E+03     1.6922908480E+02
C    -1.2003207021E+03     8.5933575656E+02    -7.8415686273E+02
C    -1.6237880588E+03     6.6716310562E+02    -3.4187566113E+02
C    -1.2427318972E+03    -1.3356917334E+03     2.0452651244E+02
C     1.4934546495E+02    -5.6696754688E+02     4.0660724709E+02
C     5.3080853512E+02     1.1276601118E+03     3.4418932586E+02
C    -1.3521152615E+03    -1.1012411913E+03     5.4990178687E+02
C    -4.3232141392E+02    -4.8140174619E+02     8.8571496007E+02
C     5.2019402614E+02    -1.8608668039E+02     1.1495920569E+03
C    -6.2392386554E+02     1.0957125720E+03    -1.2069456319E+02
C     1.0449925769E+03     5.4505335716E+02    -1.2808512462E+03
C    -1.5580269601E+03    -2.6082681145E+02    -6.4814906975E+02
C     1.1399189086E+02    -5.8457492860E+02     4.5493390734E+02
C     1.5171915366E+02    -1.0942307325E+03     1.2336582255E+03
C    -7.4523460368E+02     1.7336054653E+02    -1.3091357445E+02
C     1.0445607461E+03    -2.7495417139E+02     2.9570719205E+02
C     9.1727074588E+02    -5.1272137418E+02     4.6486567316E+01
C     2.6230165292E+02     1.5613134661E+03    -9.3598655836E+02
C     6.2519618651E+02     1.2665237710E+03    -2.0462460769E+02
C     2.9490311861E+01    -1.0154394050E+03     3.6818491403E+02
C    -2.5756807689E+02    -1.6278491408E+03     1.8443790665E+02
C    -2.1215111656E+02    -7.0891786645E+02    -1.3046874466E+03
C    -1.7141737086E+03     3.8463512819E+02    -3.5269863880E+02
C     1.9051587478E+02    -1.0635464996E+03     8.3263799338E+02
C    -5.5882948103E+02    -5.7408037772E+02     1.7757305323E+02
C     7.7914487015E+02    -5.7923423621E+02     1.5603177164E+03
C     1.4009383094E+02    -1.6305465534E+03    -6.8467934404E+02
C     3.2434503023E+02    -1.7679222506E+03     3.1610461435E+02
C     4.3759865557E+02     1.4463644219E+03    -3.1044754072E+02
C     1.0843365646E+03     5.7682406245E+02    -4.3107860976E+02
C     7.7803301116E+02    -2.6834580814E+02     1.0922020023E+03
C     8.1756853578E+01    -6.5447350034E+02     1.4359233146E+02
C    -7.3986698117E+02    -4.7660762142E+02     1.5775219658E+03
C     1.1403986690E+03    -1.1553026349E+02    -1.0534447156E+03
C    -1.0804630234E+03     8.8737674204E+02    -1.2546217574E+02
C    -4.6659654733E+02     1.0192963361E+03    -3.6371844112E+01
C    -2.2128075943E+01    -6.2198766870E+02     9.8395823883E+02
C    -1.1329198432E+03    -3.7122713748E+02    -1.2901159223E+03
C    -9.0009577778E+02     8.4423779121E+02    -7.6985497787E+02
C     6.8142758018E+02    -1.2694032242E+03    -9.4547990850E+02
C     1.7114282052E+02     4.6588778485E+02    -7.7187894953E+02
C     1.1532523712E+03     6.8351164672E+02     8.5956590074E+02
C    -1.0697387204E+03     1.2901531942E+03     5.7362696141E+02
C    -6.8154916949E+02    -5.0060194688E+02    -1.4408032185E+02
C     1.1282375370E+03    -8.0708090325E+02    -8.0074548409E+02
C     8.6755943864E+02     1.3432439417E+02     6.1456710194E+02
C    -9.0260509662E+02     1.1307568084E+03     9.2368245801E+02
C     1.5400033813E+03    -3.7955601397E+02     3.2868391075E+02
C     1.4475882606E+03     3.5857494119E+02     9.4455917949E+02
C     1.4133989115E+03    -2.8967070765E+02     4.6634784953E+02
C    -5.3676172829E+02    -4.5081396734E+02    -7.1905049044E+01
C    -1.6623827824E+03     6.8582054420E+02    -2.5190056907E+01
C    -2.1268833453E+02    -5.7647284260E+02     7.7350971074E+02
C     1.1563366622E+03     5.3173010546E+02     7.6303831070E+02
C     7.3032292036E+02    -7.0953872752E+02     1.3762238523E+02
C    -8.9177586396E+02     1.1387625225E+03     1.0941453773E+02
C    -1.1978483203E+03     7.4875580981E+02    -1.5116597125E+02
C    -8.6076530181E+02    -8.2548994115E+02    -5.9961971315E+02
C     3.8703457262E+02     6.0861491382E+02     5.1238078117E+02
C     1.4533539690E+03    -1.7655328801E+02     7.9078873895E+02
C    -4.0447421783E+02    -6.6027352440E+02     6.0492547036E+01
C     4.1527890175E+02     3.4299219935E+02    -6.6681058507E+02
C    -5.1712791460E+02     1.3632178130E+03    -9.6848946765E+02
C     1.4769127128E+03    -8.7727292019E+02     3.5342170148E+02
C    -1.3933973638E+02    -2.4678145072E+02    -1.6461420973E+03
C     8.2838040093E+02     3.3849353997E+02    -1.1425671142E+03
C     1.4211120688E+03    -2.9254971931E+02     3.8264436909E+02
C     3.2661469738E+02     1.2579766599E+02     1.5899842940E+03
C    -9.4410312747E+01     3.2297115599E+02    -7.3762636105E+01
C     8.3337474140E+02    -6.3192742683E+02    -9.7192288341E+02
C    -3.1911249217E+02     1.0198147731E+02    -1.3256419164E+03
C     6.7612316186E+02     8.7079957077E+02     9.6960938943E+02
C    -6.7191369217E+01     7.6727483909E+02    -9.5039372162E+02
C     8.9452675213E+02     9.7291000435E+02     2.5478896918E+02
C    -9.9371709312E+01    -2.9327024332E+02    -5.1614242858E+02
C     4.6446356767E+02    -1.0579938663E+03    -1.0437961800E+03
C     1.3808639595E+03    -2.8550608184E+02    -9.7679967070E+02
C     3.6246771379E+02    -1.2249921578E+03    -5.2694325388E+02
C     1.1405507738E+03    -2.1789745928E+02    -4.5169580645E+02
C    -7.9684020965E+02    -8.1776967325E+02    -1.1758624466E+03
C     4.9941370830E+02     2.9252912488E+02     1.1796236343E+01
C     8.9556733201E+01     1.2725184994E+02    -1.6485097867E+03
C    -1.5059087262E+03    -1.8078828363E+02     1.0280005207E+03
C    -5.7854320105E+02    -8.1506605400E+02    -1.8071618907E+02
C    -9.1601572117E+02    -1.2780397898E+03     7.9021975825E+02
C    -7.5199302410E+02    -1.3601762530E+03     8.4488263552E+02
C    -6.4979025206E+02    -3.0829058048E+02    -3.3231935326E+02
C    -1.5699203474E+03     5.4820209855E+02    -2.0717528564E+02
C    -8.3042756639E+02    -9.9981319718E+02     1.3468951454E+02
C     9.4104579324E+02    -3.6137233427E+02     1.2743245235E+03
C    -6.8873189705E+02    -3.4241848435E+02     1.2060128443E+03
C     7.5598617121E+02    -8.0176417167E+02     7.5337704571E+02
C    -4.7027559114E+02     1.4649441798E+03    -2.4100983169E+02
C    -3.9154390091E+02     5.7293480535E+02    -3.9231485010E+02
C     1.0889261531E+02     2.8718877313E+02     1.2841346571E+03
C     1.2302553776E+03    -6.8016954580E+02    -2.1742816632E+02
C     5.1015016678E+02     9.2954913546E+02    -7.2234212855E+02
C    -1.1222641254E+03     8.4680722717E+02     2.7462163390E+02
C    -2.5374273033E+02     6.1444297069E+01     1.3744694044E+03
C    -9.3384641057E+02     3.3420244696E+02    -1.0480250546E+03
C    -4.0883035948E+02     1.0186110429E+03     1.2876451000E+03
C     1.3795335167E+02    -1.5403835219E+03     1.0075084009E+03
C    -1.3175571004E+03     1.0916380561E+02    -5.6494667829E+00
C     8.8168654823E+02     1.3169104448E+03     3.4106283993E+02
C     1.3510329204E+02    -1.1591439475E+03    -9.9985505731E+02
C    -2.8392293917E+02    -1.7544672698E+03     2.9728826463E+02
C    -5.7081695855E+02     2.9200763333E+02    -1.5830626360E+03
C    -9.9576987659E+02    -5.5346554612E+02     8.8597585953E+02
C     1.0769237688E+02    -1.0978030962E+03    -1.4254084872E+03
C     2.3634893302E+01    -1.3055021509E+03     1.0568513242E+03
C    -4.2360042546E+02     1.0811408575E+02     6.0960872827E+02
C     1.2477154567E+03    -5.8501235474E+02     1.1072201728E+03
C     1.4238355994E+03     3.9712778532E+02     4.0773777018E+02
C    -1.8310874000E+02    -1.2301594077E+03    -8.9935713305E+02
C    -1.3135901537E+03    -1.1067818512E+03    -6.4183895823E+02
C    -5.6155922693E+02    -1.6145746692E+03     3.8816781026E+02
C     8.2527618509E+02    -1.3142182935E+03    -3.0198682669E+02
C    -2.1909772544E+02    -6.4709524914E+02     8.7187875228E+02
C    -1.5878171352E+03    -6.3559008366E+02     3.2458686652E+02
C    -5.8595838052E+02    -1.1011751250E+03    -1.1059609638E+03
C     2.9605116761E+02     4.7368543788E+02    -1.4644971497E+03
C     6.0051858893E+02    -1.8650360345E+02     1.5853334111E+03
C    -8.1657104867E+02     3.2607252187E+02     1.1143843744E+03
C    -4.6714326568E+01     1.4054418611E+03     7.2934144700E+02
C    -1.0366978410E+03    -7.4129985646E+02     1.2836230210E+03
C    -5.6831391124E+02     5.1738717958E+02     1.3946504618E+03
C    -2.8136980990E+02    -4.6202131890E+02    -1.7450862700E+02
C    -4.8877389270E+02    -1.2183085005E+03     5.8194278531E+01
C     9.4351106568E+02    -9.8290962351E+01     9.4510648054E+02
C    -1.2772672374E+03    -7.0679609413E+02    -5.9596064467E+02
C    -9.7739776613E+02     6.7459610089E+01     1.1789789775E+03
C    -3.3385894963E+02    -2.5556162988E+02    -8.9326040098E+02
C    -4.9495624770E+02     6.4250818619E+02     1.1672580649E+03
C    -7.8230409357E+01    -6.6709808557E+02    -2.9523479418E+02
C     9.4645116008E+02    -8.4361089864E+02     8.0294209460E+02
C    -7.6538165766E+02     5.6436615810E+02    -1.4619163986E+03
C     7.9993212262E+01     4.5024335874E+02     6.4766317675E+02
C     9.0812258445E+02    -8.5250276883E+02     5.2208497723E+02
C     6.5845148486E+02     1.0886545970E+03    -1.2215037095E+03
C    -5.8172455371E+02    -1.1112865798E+03    -1.3087669211E+03
C     5.7482584184E+02     7.2356356115E+02     2.3358571700E+02
C     1.7230362611E+01    -4.8218790092E+02    -1.3790040930E+03
C    -1.8979991432E+02     4.3265417187E+02     1.4800723372E+03
C    -1.0379113792E+03     7.7419925935E+02     8.2541463621E+02
C    -1.0288307980E+03     1.8568807664E+01     6.4820983302E+02
C     1.2535871438E+03     7.8828618451E+02    -5.7714164189E+02
C    -1.2247502483E+03    -9.7762153668E+02     1.5656322802E+02
C    -8.7295345939E+02    -6.3643292445E+02     1.3417218227E+03
C     9.3649912985E+02     2.6827687420E+02     8.7800136003E+02
C    -2.4218577085E+02     3.1708712085E+02    -1.0649603282E+03
C     9.0953477534E+02     3.6270655812E+02     1.4402713067E+03
C    -5.1679349603E+02    -1.9071544423E+02     7.6670227934E+02
C     8.7322512681E+02    -8.4961986913E+02     9.3103897075E+02
